13 59
60 66
21 153
41 37
78 16
40 55
83 1
79 41
98 13
28 49
11 179
12 7
39 68
15 146
61 98
5 137
93 58
7 151
5 98
2 52
97 22
22 98
43 75
92 54
31 128
18 172
10 145
29 122
12 105
1 1
13 165
18 73
36 3
24 63
19 74
78 25
26 59
73 13
20 70
69 7
72 72
8 100
16 167
3 155
2 193
51 112
45 8
93 3
23 157
61 27
